20
0 1 0.22 0.22
0 2 0.16 0.16
0 3 0.56 0.14
0 4 0.64 0.22
0 5 0.25 0.25
0 6 0.68 0.26
0 7 0.18 0.18
0 8 0.48 0.23
0 9 0.32 0.32
0 10 0.36 0.36
0 11 0.28 0.28
0 12 0.47 0.06
0 13 0.18 0.18
0 14 0.19 0.19
0 15 0.1 0.1
0 16 0.64 0.2
0 17 0.14 0.14
0 18 0.68 0.17
0 19 0.23 0.23
1 2 0.15 0.15
1 3 0.66 0.26
1 4 0.47 0.25
1 5 0.66 0.12
1 6 0.19 0.19
1 7 0.04 0.04
1 8 0.22 0.22
1 9 0.62 0.31
1 10 0.44 0.14
1 11 0.39 0.39
1 12 0.48 0.18
1 13 0.14 0.14
1 14 0.18 0.18
1 15 0.22 0.22
1 16 0.16 0.16
1 17 0.45 0.1
1 18 0.26 0.26
1 19 0.31 0.31
2 3 0.61 0.3
2 4 0.67 0.33
2 5 0.52 0.27
2 6 0.54 0.28
2 7 0.19 0.19
2 8 0.3 0.3
2 9 0.45 0.16
2 10 0.24 0.2
2 11 0.24 0.24
2 12 0.22 0.22
2 13 0.51 0.29
2 14 0.34 0.26
2 15 0.46 0.26
2 16 0.31 0.31
2 17 0.25 0.25
2 18 0.33 0.33
2 19 0.32 0.32
3 4 0.2 0.2
3 5 0.6 0.25
3 6 0.66 0.28
3 7 0.36 0.22
3 8 0.68 0.15
3 9 0.4 0.37
3 10 0.39 0.39
3 11 0.24 0.24
3 12 0.75 0.08
3 13 0.31 0.31
3 14 0.78 0.19
3 15 0.04 0.04
3 16 0.33 0.33
3 17 0.28 0.28
3 18 0.19 0.19
3 19 0.25 0.25
4 5 0.58 0.13
4 6 0.61 0.2
4 7 0.65 0.21
4 8 0.11 0.11
4 9 0.76 0.27
4 10 0.49 0.27
4 11 0.38 0.18
4 12 0.2 0.2
4 13 0.11 0.11
4 14 0.34 0.07
4 15 0.16 0.16
4 16 0.5 0.13
4 17 0.48 0.15
4 18 0.15 0.15
4 19 0.82 0.2
5 6 0.07 0.07
5 7 0.24 0.08
5 8 0.1 0.1
5 9 0.5 0.26
5 10 0.14 0.14
5 11 0.31 0.31
5 12 0.62 0.22
5 13 0.24 0.24
5 14 0.55 0.06
5 15 0.62 0.26
5 16 0.42 0.26
5 17 0.21 0.21
5 18 0.51 0.14
5 19 0.53 0.19
6 7 0.15 0.15
6 8 0.34 0.17
6 9 0.26 0.26
6 10 0.64 0.21
6 11 0.82 0.29
6 12 0.74 0.2
6 13 0.46 0.18
6 14 0.39 0.13
6 15 0.24 0.24
6 16 0.26 0.2
6 17 0.14 0.14
6 18 0.09 0.09
6 19 0.26 0.26
7 8 0.18 0.18
7 9 0.72 0.34
7 10 0.18 0.18
7 11 0.74 0.39
7 12 0.39 0.14
7 13 0.18 0.18
7 14 0.14 0.14
7 15 0.18 0.18
7 16 0.62 0.2
7 17 0.14 0.14
7 18 0.52 0.22
7 19 0.27 0.27
8 9 0.4 0.24
8 10 0.5 0.24
8 11 0.21 0.21
8 12 0.65 0.23
8 13 0.68 0.22
8 14 0.04 0.04
8 15 0.78 0.19
8 16 0.22 0.22
8 17 0.5 0.26
8 18 0.12 0.12
8 19 0.17 0.17
9 10 0.35 0.31
9 11 0.13 0.13
9 12 0.68 0.38
9 13 0.22 0.22
9 14 0.72 0.2
9 15 0.77 0.41
9 16 0.46 0.2
9 17 0.26 0.26
9 18 0.28 0.28
9 19 0.53 0.33
10 11 0.42 0.42
10 12 0.68 0.32
10 13 0.18 0.18
10 14 0.58 0.2
10 15 0.36 0.36
10 16 0.61 0.18
10 17 0.44 0.22
10 18 0.28 0.28
10 19 0.33 0.33
11 12 0.3 0.3
11 13 0.54 0.29
11 14 0.49 0.25
11 15 0.28 0.28
11 16 0.31 0.31
11 17 0.33 0.33
11 18 0.2 0.2
11 19 0.38 0.38
12 13 0.58 0.24
12 14 0.44 0.19
12 15 0.04 0.04
12 16 0.7 0.26
12 17 0.2 0.2
12 18 0.54 0.11
12 19 0.64 0.17
13 14 0.56 0.18
13 15 0.27 0.27
13 16 0.02 0.02
13 17 0.38 0.04
13 18 0.2 0.2
13 19 0.77 0.31
14 15 0.54 0.23
14 16 0.2 0.2
14 17 0.65 0.22
14 18 0.08 0.08
14 19 0.48 0.13
15 16 0.7 0.29
15 17 0.64 0.24
15 18 0.15 0.15
15 19 0.65 0.21
16 17 0.06 0.06
16 18 0.36 0.22
16 19 0.63 0.33
17 18 0.23 0.23
17 19 0.35 0.35
18 19 0.58 0.21
